p cnf 618 2339
1 0
-2 0
-3 0
-4 0
-5 0
-6 0
-7 0
-8 0
-9 0
-10 0
11 12 13 14 0
-11 -12 0
-11 -13 0
-11 -14 0
-12 -13 0
-12 -14 0
-13 -14 0
15 -1 -16 0
1 -15 -16 0
-15 -1 16 0
1 15 16 0
-11 -16 0
1 -15 -17 0
15 -1 -17 0
17 -1 -15 0
17 1 15 0
-12 17 0
-13 17 0
-14 17 0
18 -2 -19 0
2 -18 -19 0
-18 -2 19 0
2 18 19 0
-11 -19 0
2 -20 -21 0
20 -2 -21 0
21 -2 -20 0
21 2 20 0
-12 21 0
-18 22 0
-20 22 0
-23 22 0
-24 22 0
-25 22 0
-26 22 0
-27 22 0
-28 22 0
-29 22 0
30 0
2 -22 -31 0
-2 22 -31 0
-2 -22 31 0
2 22 31 0
-13 31 0
18 32 0
20 32 0
23 32 0
24 32 0
25 32 0
26 32 0
27 32 0
28 32 0
29 32 0
-33 0
-2 32 -34 0
2 -32 -34 0
34 -32 -2 0
2 32 34 0
-14 -34 0
20 -35 -36 0
35 -20 -36 0
-20 -35 36 0
20 35 36 0
-11 -36 0
35 -23 -37 0
23 -35 -37 0
37 -35 -23 0
37 35 23 0
-12 37 0
-20 38 0
-23 38 0
-24 38 0
-25 38 0
-26 38 0
-27 38 0
-28 38 0
-29 38 0
39 0
35 -38 -40 0
-35 38 -40 0
-35 -38 40 0
35 38 40 0
-13 40 0
20 41 0
23 41 0
24 41 0
25 41 0
26 41 0
27 41 0
28 41 0
29 41 0
-42 0
-35 41 -43 0
35 -41 -43 0
43 -41 -35 0
35 41 43 0
-14 -43 0
23 -44 -45 0
44 -23 -45 0
-23 -44 45 0
23 44 45 0
-11 -45 0
44 -24 -46 0
24 -44 -46 0
46 -44 -24 0
46 44 24 0
-12 46 0
-23 47 0
-24 47 0
-25 47 0
-26 47 0
-27 47 0
-28 47 0
-29 47 0
48 0
44 -47 -49 0
-44 47 -49 0
-44 -47 49 0
44 47 49 0
-13 49 0
23 50 0
24 50 0
25 50 0
26 50 0
27 50 0
28 50 0
29 50 0
-51 0
-44 50 -52 0
44 -50 -52 0
52 -50 -44 0
44 50 52 0
-14 -52 0
24 -53 -54 0
53 -24 -54 0
-24 -53 54 0
24 53 54 0
-11 -54 0
53 -25 -55 0
25 -53 -55 0
55 -53 -25 0
55 53 25 0
-12 55 0
-24 56 0
-25 56 0
-26 56 0
-27 56 0
-28 56 0
-29 56 0
24 25 26 27 28 29 -56 0
53 -56 -57 0
-53 56 -57 0
-53 -56 57 0
53 56 57 0
-13 57 0
24 58 0
25 58 0
26 58 0
27 58 0
28 58 0
29 58 0
-59 0
-53 58 -60 0
53 -58 -60 0
60 -58 -53 0
53 58 60 0
-14 -60 0
25 -61 -62 0
61 -25 -62 0
-25 -61 62 0
25 61 62 0
-11 -62 0
61 -26 -63 0
26 -61 -63 0
63 -61 -26 0
63 61 26 0
-12 63 0
-25 64 0
-26 64 0
-27 64 0
-28 64 0
-29 64 0
25 26 27 28 29 -64 0
61 -64 -65 0
-61 64 -65 0
-61 -64 65 0
61 64 65 0
-13 65 0
25 66 0
26 66 0
27 66 0
28 66 0
29 66 0
-67 0
-61 66 -68 0
61 -66 -68 0
68 -66 -61 0
61 66 68 0
-14 -68 0
26 -69 -70 0
69 -26 -70 0
-26 -69 70 0
26 69 70 0
-11 -70 0
69 -27 -71 0
27 -69 -71 0
71 -69 -27 0
71 69 27 0
-12 71 0
69 -64 -72 0
-69 64 -72 0
-69 -64 72 0
69 64 72 0
-13 72 0
-69 66 -73 0
69 -66 -73 0
73 -66 -69 0
69 66 73 0
-14 -73 0
27 -74 -75 0
74 -27 -75 0
-27 -74 75 0
27 74 75 0
-11 -75 0
74 -28 -76 0
28 -74 -76 0
76 -74 -28 0
76 74 28 0
-12 76 0
74 -64 -77 0
-74 64 -77 0
-74 -64 77 0
74 64 77 0
-13 77 0
-74 66 -78 0
74 -66 -78 0
78 -66 -74 0
74 66 78 0
-14 -78 0
28 -79 -80 0
79 -28 -80 0
-28 -79 80 0
28 79 80 0
-11 -80 0
79 -29 -81 0
29 -79 -81 0
81 -79 -29 0
81 79 29 0
-12 81 0
79 -64 -82 0
-79 64 -82 0
-79 -64 82 0
79 64 82 0
-13 82 0
-79 66 -83 0
79 -66 -83 0
83 -66 -79 0
79 66 83 0
-14 -83 0
29 -84 -85 0
84 -29 -85 0
-29 -84 85 0
29 84 85 0
-11 -85 0
-25 84 -86 0
25 -84 -86 0
86 -84 -25 0
86 84 25 0
-12 86 0
84 -64 -87 0
-84 64 -87 0
-84 -64 87 0
84 64 87 0
-13 87 0
-84 66 -88 0
84 -66 -88 0
88 -66 -84 0
84 66 88 0
-14 -88 0
89 -3 -90 0
3 -89 -90 0
-89 -3 90 0
3 89 90 0
-11 -90 0
3 -91 -92 0
91 -3 -92 0
92 -3 -91 0
92 3 91 0
-12 92 0
-89 93 0
-91 93 0
-94 93 0
-95 93 0
-96 93 0
-97 93 0
-98 93 0
-99 93 0
-100 93 0
-101 93 0
102 0
3 -93 -103 0
-3 93 -103 0
-3 -93 103 0
3 93 103 0
-13 103 0
89 104 0
91 104 0
94 104 0
95 104 0
96 104 0
97 104 0
98 104 0
99 104 0
100 104 0
101 104 0
-105 0
-3 104 -106 0
3 -104 -106 0
106 -104 -3 0
3 104 106 0
-14 -106 0
91 -107 -108 0
107 -91 -108 0
-91 -107 108 0
91 107 108 0
-11 -108 0
107 -94 -109 0
94 -107 -109 0
109 -107 -94 0
109 107 94 0
-12 109 0
-91 110 0
-94 110 0
-95 110 0
-96 110 0
-97 110 0
-98 110 0
-99 110 0
-100 110 0
-101 110 0
111 0
107 -110 -112 0
-107 110 -112 0
-107 -110 112 0
107 110 112 0
-13 112 0
91 113 0
94 113 0
95 113 0
96 113 0
97 113 0
98 113 0
99 113 0
100 113 0
101 113 0
-114 0
-107 113 -115 0
107 -113 -115 0
115 -113 -107 0
107 113 115 0
-14 -115 0
94 -116 -117 0
116 -94 -117 0
-94 -116 117 0
94 116 117 0
-11 -117 0
116 -95 -118 0
95 -116 -118 0
118 -116 -95 0
118 116 95 0
-12 118 0
-94 119 0
-95 119 0
-96 119 0
-97 119 0
-98 119 0
-99 119 0
-100 119 0
-101 119 0
120 0
116 -119 -121 0
-116 119 -121 0
-116 -119 121 0
116 119 121 0
-13 121 0
94 122 0
95 122 0
96 122 0
97 122 0
98 122 0
99 122 0
100 122 0
101 122 0
-123 0
-116 122 -124 0
116 -122 -124 0
124 -122 -116 0
116 122 124 0
-14 -124 0
95 -125 -126 0
125 -95 -126 0
-95 -125 126 0
95 125 126 0
-11 -126 0
125 -96 -127 0
96 -125 -127 0
127 -125 -96 0
127 125 96 0
-12 127 0
-95 128 0
-96 128 0
-97 128 0
-98 128 0
-99 128 0
-100 128 0
-101 128 0
129 0
125 -128 -130 0
-125 128 -130 0
-125 -128 130 0
125 128 130 0
-13 130 0
95 131 0
96 131 0
97 131 0
98 131 0
99 131 0
100 131 0
101 131 0
-132 0
-125 131 -133 0
125 -131 -133 0
133 -131 -125 0
125 131 133 0
-14 -133 0
96 -134 -135 0
134 -96 -135 0
-96 -134 135 0
96 134 135 0
-11 -135 0
134 -97 -136 0
97 -134 -136 0
136 -134 -97 0
136 134 97 0
-12 136 0
-96 137 0
-97 137 0
-98 137 0
-99 137 0
-100 137 0
-101 137 0
138 0
134 -137 -139 0
-134 137 -139 0
-134 -137 139 0
134 137 139 0
-13 139 0
96 140 0
97 140 0
98 140 0
99 140 0
100 140 0
101 140 0
-141 0
-134 140 -142 0
134 -140 -142 0
142 -140 -134 0
134 140 142 0
-14 -142 0
97 -143 -144 0
143 -97 -144 0
-97 -143 144 0
97 143 144 0
-11 -144 0
143 -98 -145 0
98 -143 -145 0
145 -143 -98 0
145 143 98 0
-12 145 0
-97 146 0
-98 146 0
-99 146 0
-100 146 0
-101 146 0
97 98 99 100 101 -146 0
143 -146 -147 0
-143 146 -147 0
-143 -146 147 0
143 146 147 0
-13 147 0
97 148 0
98 148 0
99 148 0
100 148 0
101 148 0
-149 0
-143 148 -150 0
143 -148 -150 0
150 -148 -143 0
143 148 150 0
-14 -150 0
98 -151 -152 0
151 -98 -152 0
-98 -151 152 0
98 151 152 0
-11 -152 0
151 -99 -153 0
99 -151 -153 0
153 -151 -99 0
153 151 99 0
-12 153 0
-98 154 0
-99 154 0
-100 154 0
-101 154 0
98 99 100 101 -154 0
151 -154 -155 0
-151 154 -155 0
-151 -154 155 0
151 154 155 0
-13 155 0
98 156 0
99 156 0
100 156 0
101 156 0
-157 0
-151 156 -158 0
151 -156 -158 0
158 -156 -151 0
151 156 158 0
-14 -158 0
99 -159 -160 0
159 -99 -160 0
-99 -159 160 0
99 159 160 0
-11 -160 0
159 -100 -161 0
100 -159 -161 0
161 -159 -100 0
161 159 100 0
-12 161 0
159 -154 -162 0
-159 154 -162 0
-159 -154 162 0
159 154 162 0
-13 162 0
-159 156 -163 0
159 -156 -163 0
163 -156 -159 0
159 156 163 0
-14 -163 0
100 -164 -165 0
164 -100 -165 0
-100 -164 165 0
100 164 165 0
-11 -165 0
164 -101 -166 0
101 -164 -166 0
166 -164 -101 0
166 164 101 0
-12 166 0
164 -154 -167 0
-164 154 -167 0
-164 -154 167 0
164 154 167 0
-13 167 0
-164 156 -168 0
164 -156 -168 0
168 -156 -164 0
164 156 168 0
-14 -168 0
101 -169 -170 0
169 -101 -170 0
-101 -169 170 0
101 169 170 0
-11 -170 0
-98 169 -171 0
98 -169 -171 0
171 -169 -98 0
171 169 98 0
-12 171 0
169 -154 -172 0
-169 154 -172 0
-169 -154 172 0
169 154 172 0
-13 172 0
-169 156 -173 0
169 -156 -173 0
173 -156 -169 0
169 156 173 0
-14 -173 0
174 -4 -175 0
4 -174 -175 0
-174 -4 175 0
4 174 175 0
-11 -175 0
4 -176 -177 0
176 -4 -177 0
177 -4 -176 0
177 4 176 0
-12 177 0
-174 178 0
-176 178 0
-179 178 0
-180 178 0
-181 178 0
-182 178 0
-183 178 0
-184 178 0
-185 178 0
-186 178 0
-187 178 0
188 0
4 -178 -189 0
-4 178 -189 0
-4 -178 189 0
4 178 189 0
-13 189 0
174 190 0
176 190 0
179 190 0
180 190 0
181 190 0
182 190 0
183 190 0
184 190 0
185 190 0
186 190 0
187 190 0
-191 0
-4 190 -192 0
4 -190 -192 0
192 -190 -4 0
4 190 192 0
-14 -192 0
176 -193 -194 0
193 -176 -194 0
-176 -193 194 0
176 193 194 0
-11 -194 0
193 -179 -195 0
179 -193 -195 0
195 -193 -179 0
195 193 179 0
-12 195 0
-176 196 0
-179 196 0
-180 196 0
-181 196 0
-182 196 0
-183 196 0
-184 196 0
-185 196 0
-186 196 0
-187 196 0
197 0
193 -196 -198 0
-193 196 -198 0
-193 -196 198 0
193 196 198 0
-13 198 0
176 199 0
179 199 0
180 199 0
181 199 0
182 199 0
183 199 0
184 199 0
185 199 0
186 199 0
187 199 0
-200 0
-193 199 -201 0
193 -199 -201 0
201 -199 -193 0
193 199 201 0
-14 -201 0
179 -202 -203 0
202 -179 -203 0
-179 -202 203 0
179 202 203 0
-11 -203 0
202 -180 -204 0
180 -202 -204 0
204 -202 -180 0
204 202 180 0
-12 204 0
-179 205 0
-180 205 0
-181 205 0
-182 205 0
-183 205 0
-184 205 0
-185 205 0
-186 205 0
-187 205 0
206 0
202 -205 -207 0
-202 205 -207 0
-202 -205 207 0
202 205 207 0
-13 207 0
179 208 0
180 208 0
181 208 0
182 208 0
183 208 0
184 208 0
185 208 0
186 208 0
187 208 0
-209 0
-202 208 -210 0
202 -208 -210 0
210 -208 -202 0
202 208 210 0
-14 -210 0
180 -211 -212 0
211 -180 -212 0
-180 -211 212 0
180 211 212 0
-11 -212 0
211 -181 -213 0
181 -211 -213 0
213 -211 -181 0
213 211 181 0
-12 213 0
-180 214 0
-181 214 0
-182 214 0
-183 214 0
-184 214 0
-185 214 0
-186 214 0
-187 214 0
215 0
211 -214 -216 0
-211 214 -216 0
-211 -214 216 0
211 214 216 0
-13 216 0
180 217 0
181 217 0
182 217 0
183 217 0
184 217 0
185 217 0
186 217 0
187 217 0
-218 0
-211 217 -219 0
211 -217 -219 0
219 -217 -211 0
211 217 219 0
-14 -219 0
181 -220 -221 0
220 -181 -221 0
-181 -220 221 0
181 220 221 0
-11 -221 0
220 -182 -222 0
182 -220 -222 0
222 -220 -182 0
222 220 182 0
-12 222 0
-181 223 0
-182 223 0
-183 223 0
-184 223 0
-185 223 0
-186 223 0
-187 223 0
224 0
220 -223 -225 0
-220 223 -225 0
-220 -223 225 0
220 223 225 0
-13 225 0
181 226 0
182 226 0
183 226 0
184 226 0
185 226 0
186 226 0
187 226 0
-227 0
-220 226 -228 0
220 -226 -228 0
228 -226 -220 0
220 226 228 0
-14 -228 0
182 -229 -230 0
229 -182 -230 0
-182 -229 230 0
182 229 230 0
-11 -230 0
229 -183 -231 0
183 -229 -231 0
231 -229 -183 0
231 229 183 0
-12 231 0
-182 232 0
-183 232 0
-184 232 0
-185 232 0
-186 232 0
-187 232 0
233 0
229 -232 -234 0
-229 232 -234 0
-229 -232 234 0
229 232 234 0
-13 234 0
182 235 0
183 235 0
184 235 0
185 235 0
186 235 0
187 235 0
-236 0
-229 235 -237 0
229 -235 -237 0
237 -235 -229 0
229 235 237 0
-14 -237 0
183 -238 -239 0
238 -183 -239 0
-183 -238 239 0
183 238 239 0
-11 -239 0
238 -184 -240 0
184 -238 -240 0
240 -238 -184 0
240 238 184 0
-12 240 0
238 -232 -241 0
-238 232 -241 0
-238 -232 241 0
238 232 241 0
-13 241 0
-238 235 -242 0
238 -235 -242 0
242 -235 -238 0
238 235 242 0
-14 -242 0
184 -243 -244 0
243 -184 -244 0
-184 -243 244 0
184 243 244 0
-11 -244 0
243 -185 -245 0
185 -243 -245 0
245 -243 -185 0
245 243 185 0
-12 245 0
243 -232 -246 0
-243 232 -246 0
-243 -232 246 0
243 232 246 0
-13 246 0
-243 235 -247 0
243 -235 -247 0
247 -235 -243 0
243 235 247 0
-14 -247 0
185 -248 -249 0
248 -185 -249 0
-185 -248 249 0
185 248 249 0
-11 -249 0
248 -186 -250 0
186 -248 -250 0
250 -248 -186 0
250 248 186 0
-12 250 0
248 -232 -251 0
-248 232 -251 0
-248 -232 251 0
248 232 251 0
-13 251 0
-248 235 -252 0
248 -235 -252 0
252 -235 -248 0
248 235 252 0
-14 -252 0
186 -253 -254 0
253 -186 -254 0
-186 -253 254 0
186 253 254 0
-11 -254 0
253 -187 -255 0
187 -253 -255 0
255 -253 -187 0
255 253 187 0
-12 255 0
253 -232 -256 0
-253 232 -256 0
-253 -232 256 0
253 232 256 0
-13 256 0
-253 235 -257 0
253 -235 -257 0
257 -235 -253 0
253 235 257 0
-14 -257 0
187 -258 -259 0
258 -187 -259 0
-187 -258 259 0
187 258 259 0
-11 -259 0
-182 258 -260 0
182 -258 -260 0
260 -258 -182 0
260 258 182 0
-12 260 0
258 -232 -261 0
-258 232 -261 0
-258 -232 261 0
258 232 261 0
-13 261 0
-258 235 -262 0
258 -235 -262 0
262 -235 -258 0
258 235 262 0
-14 -262 0
263 -5 -264 0
5 -263 -264 0
-263 -5 264 0
5 263 264 0
-11 -264 0
5 -265 -266 0
265 -5 -266 0
266 -5 -265 0
266 5 265 0
-12 266 0
-23 267 0
-24 267 0
-25 267 0
-26 267 0
-27 267 0
-28 267 0
-29 267 0
-263 267 0
-265 267 0
268 0
5 -267 -269 0
-5 267 -269 0
-5 -267 269 0
5 267 269 0
-13 269 0
23 270 0
24 270 0
25 270 0
26 270 0
27 270 0
28 270 0
29 270 0
263 270 0
265 270 0
-271 0
-5 270 -272 0
5 -270 -272 0
272 -270 -5 0
5 270 272 0
-14 -272 0
265 -273 -274 0
273 -265 -274 0
-265 -273 274 0
265 273 274 0
-11 -274 0
-23 273 -275 0
23 -273 -275 0
275 -273 -23 0
275 273 23 0
-12 275 0
-23 276 0
-24 276 0
-25 276 0
-26 276 0
-27 276 0
-28 276 0
-29 276 0
-265 276 0
277 0
273 -276 -278 0
-273 276 -278 0
-273 -276 278 0
273 276 278 0
-13 278 0
23 279 0
24 279 0
25 279 0
26 279 0
27 279 0
28 279 0
29 279 0
265 279 0
-280 0
-273 279 -281 0
273 -279 -281 0
281 -279 -273 0
273 279 281 0
-14 -281 0
282 -6 -283 0
6 -282 -283 0
-282 -6 283 0
6 282 283 0
-11 -283 0
6 -284 -285 0
284 -6 -285 0
285 -6 -284 0
285 6 284 0
-12 285 0
-282 286 0
-284 286 0
-287 286 0
-288 286 0
-289 286 0
-290 286 0
291 0
6 -286 -292 0
-6 286 -292 0
-6 -286 292 0
6 286 292 0
-13 292 0
282 293 0
284 293 0
287 293 0
288 293 0
289 293 0
290 293 0
-294 0
-6 293 -295 0
6 -293 -295 0
295 -293 -6 0
6 293 295 0
-14 -295 0
284 -296 -297 0
296 -284 -297 0
-284 -296 297 0
284 296 297 0
-11 -297 0
296 -287 -298 0
287 -296 -298 0
298 -296 -287 0
298 296 287 0
-12 298 0
-284 299 0
-287 299 0
-288 299 0
-289 299 0
-290 299 0
284 287 288 289 290 -299 0
296 -299 -300 0
-296 299 -300 0
-296 -299 300 0
296 299 300 0
-13 300 0
284 301 0
287 301 0
288 301 0
289 301 0
290 301 0
-302 0
-296 301 -303 0
296 -301 -303 0
303 -301 -296 0
296 301 303 0
-14 -303 0
287 -304 -305 0
304 -287 -305 0
-287 -304 305 0
287 304 305 0
-11 -305 0
304 -288 -306 0
288 -304 -306 0
306 -304 -288 0
306 304 288 0
-12 306 0
304 -299 -307 0
-304 299 -307 0
-304 -299 307 0
304 299 307 0
-13 307 0
-304 301 -308 0
304 -301 -308 0
308 -301 -304 0
304 301 308 0
-14 -308 0
288 -309 -310 0
309 -288 -310 0
-288 -309 310 0
288 309 310 0
-11 -310 0
309 -289 -311 0
289 -309 -311 0
311 -309 -289 0
311 309 289 0
-12 311 0
309 -299 -312 0
-309 299 -312 0
-309 -299 312 0
309 299 312 0
-13 312 0
-309 301 -313 0
309 -301 -313 0
313 -301 -309 0
309 301 313 0
-14 -313 0
289 -314 -315 0
314 -289 -315 0
-289 -314 315 0
289 314 315 0
-11 -315 0
314 -290 -316 0
290 -314 -316 0
316 -314 -290 0
316 314 290 0
-12 316 0
314 -299 -317 0
-314 299 -317 0
-314 -299 317 0
314 299 317 0
-13 317 0
-314 301 -318 0
314 -301 -318 0
318 -301 -314 0
314 301 318 0
-14 -318 0
290 -319 -320 0
319 -290 -320 0
-290 -319 320 0
290 319 320 0
-11 -320 0
-284 319 -321 0
284 -319 -321 0
321 -319 -284 0
321 319 284 0
-12 321 0
319 -299 -322 0
-319 299 -322 0
-319 -299 322 0
319 299 322 0
-13 322 0
-319 301 -323 0
319 -301 -323 0
323 -301 -319 0
319 301 323 0
-14 -323 0
324 -7 -325 0
7 -324 -325 0
-324 -7 325 0
7 324 325 0
-11 -325 0
7 -326 -327 0
326 -7 -327 0
327 -7 -326 0
327 7 326 0
-12 327 0
-324 328 0
-326 328 0
-329 328 0
-330 328 0
-331 328 0
-332 328 0
-333 328 0
-334 328 0
-335 328 0
-336 328 0
-337 328 0
-338 328 0
339 0
7 -328 -340 0
-7 328 -340 0
-7 -328 340 0
7 328 340 0
-13 340 0
324 341 0
326 341 0
329 341 0
330 341 0
331 341 0
332 341 0
333 341 0
334 341 0
335 341 0
336 341 0
337 341 0
338 341 0
-342 0
-7 341 -343 0
7 -341 -343 0
343 -341 -7 0
7 341 343 0
-14 -343 0
326 -344 -345 0
344 -326 -345 0
-326 -344 345 0
326 344 345 0
-11 -345 0
344 -329 -346 0
329 -344 -346 0
346 -344 -329 0
346 344 329 0
-12 346 0
-326 347 0
-329 347 0
-330 347 0
-331 347 0
-332 347 0
-333 347 0
-334 347 0
-335 347 0
-336 347 0
-337 347 0
-338 347 0
348 0
344 -347 -349 0
-344 347 -349 0
-344 -347 349 0
344 347 349 0
-13 349 0
326 350 0
329 350 0
330 350 0
331 350 0
332 350 0
333 350 0
334 350 0
335 350 0
336 350 0
337 350 0
338 350 0
-351 0
-344 350 -352 0
344 -350 -352 0
352 -350 -344 0
344 350 352 0
-14 -352 0
329 -353 -354 0
353 -329 -354 0
-329 -353 354 0
329 353 354 0
-11 -354 0
353 -330 -355 0
330 -353 -355 0
355 -353 -330 0
355 353 330 0
-12 355 0
-329 356 0
-330 356 0
-331 356 0
-332 356 0
-333 356 0
-334 356 0
-335 356 0
-336 356 0
-337 356 0
-338 356 0
357 0
353 -356 -358 0
-353 356 -358 0
-353 -356 358 0
353 356 358 0
-13 358 0
329 359 0
330 359 0
331 359 0
332 359 0
333 359 0
334 359 0
335 359 0
336 359 0
337 359 0
338 359 0
-360 0
-353 359 -361 0
353 -359 -361 0
361 -359 -353 0
353 359 361 0
-14 -361 0
330 -362 -363 0
362 -330 -363 0
-330 -362 363 0
330 362 363 0
-11 -363 0
362 -331 -364 0
331 -362 -364 0
364 -362 -331 0
364 362 331 0
-12 364 0
-330 365 0
-331 365 0
-332 365 0
-333 365 0
-334 365 0
-335 365 0
-336 365 0
-337 365 0
-338 365 0
366 0
362 -365 -367 0
-362 365 -367 0
-362 -365 367 0
362 365 367 0
-13 367 0
330 368 0
331 368 0
332 368 0
333 368 0
334 368 0
335 368 0
336 368 0
337 368 0
338 368 0
-369 0
-362 368 -370 0
362 -368 -370 0
370 -368 -362 0
362 368 370 0
-14 -370 0
331 -371 -372 0
371 -331 -372 0
-331 -371 372 0
331 371 372 0
-11 -372 0
371 -332 -373 0
332 -371 -373 0
373 -371 -332 0
373 371 332 0
-12 373 0
-331 374 0
-332 374 0
-333 374 0
-334 374 0
-335 374 0
-336 374 0
-337 374 0
-338 374 0
375 0
371 -374 -376 0
-371 374 -376 0
-371 -374 376 0
371 374 376 0
-13 376 0
331 377 0
332 377 0
333 377 0
334 377 0
335 377 0
336 377 0
337 377 0
338 377 0
-378 0
-371 377 -379 0
371 -377 -379 0
379 -377 -371 0
371 377 379 0
-14 -379 0
332 -380 -381 0
380 -332 -381 0
-332 -380 381 0
332 380 381 0
-11 -381 0
380 -333 -382 0
333 -380 -382 0
382 -380 -333 0
382 380 333 0
-12 382 0
-332 383 0
-333 383 0
-334 383 0
-335 383 0
-336 383 0
-337 383 0
-338 383 0
384 0
380 -383 -385 0
-380 383 -385 0
-380 -383 385 0
380 383 385 0
-13 385 0
332 386 0
333 386 0
334 386 0
335 386 0
336 386 0
337 386 0
338 386 0
-387 0
-380 386 -388 0
380 -386 -388 0
388 -386 -380 0
380 386 388 0
-14 -388 0
333 -389 -390 0
389 -333 -390 0
-333 -389 390 0
333 389 390 0
-11 -390 0
389 -334 -391 0
334 -389 -391 0
391 -389 -334 0
391 389 334 0
-12 391 0
-333 392 0
-334 392 0
-335 392 0
-336 392 0
-337 392 0
-338 392 0
393 0
389 -392 -394 0
-389 392 -394 0
-389 -392 394 0
389 392 394 0
-13 394 0
333 395 0
334 395 0
335 395 0
336 395 0
337 395 0
338 395 0
-396 0
-389 395 -397 0
389 -395 -397 0
397 -395 -389 0
389 395 397 0
-14 -397 0
334 -398 -399 0
398 -334 -399 0
-334 -398 399 0
334 398 399 0
-11 -399 0
398 -335 -400 0
335 -398 -400 0
400 -398 -335 0
400 398 335 0
-12 400 0
398 -392 -401 0
-398 392 -401 0
-398 -392 401 0
398 392 401 0
-13 401 0
-398 395 -402 0
398 -395 -402 0
402 -395 -398 0
398 395 402 0
-14 -402 0
335 -403 -404 0
403 -335 -404 0
-335 -403 404 0
335 403 404 0
-11 -404 0
403 -336 -405 0
336 -403 -405 0
405 -403 -336 0
405 403 336 0
-12 405 0
403 -392 -406 0
-403 392 -406 0
-403 -392 406 0
403 392 406 0
-13 406 0
-403 395 -407 0
403 -395 -407 0
407 -395 -403 0
403 395 407 0
-14 -407 0
336 -408 -409 0
408 -336 -409 0
-336 -408 409 0
336 408 409 0
-11 -409 0
408 -337 -410 0
337 -408 -410 0
410 -408 -337 0
410 408 337 0
-12 410 0
408 -392 -411 0
-408 392 -411 0
-408 -392 411 0
408 392 411 0
-13 411 0
-408 395 -412 0
408 -395 -412 0
412 -395 -408 0
408 395 412 0
-14 -412 0
337 -413 -414 0
413 -337 -414 0
-337 -413 414 0
337 413 414 0
-11 -414 0
413 -338 -415 0
338 -413 -415 0
415 -413 -338 0
415 413 338 0
-12 415 0
413 -392 -416 0
-413 392 -416 0
-413 -392 416 0
413 392 416 0
-13 416 0
-413 395 -417 0
413 -395 -417 0
417 -395 -413 0
413 395 417 0
-14 -417 0
338 -418 -419 0
418 -338 -419 0
-338 -418 419 0
338 418 419 0
-11 -419 0
-333 418 -420 0
333 -418 -420 0
420 -418 -333 0
420 418 333 0
-12 420 0
418 -392 -421 0
-418 392 -421 0
-418 -392 421 0
418 392 421 0
-13 421 0
-418 395 -422 0
418 -395 -422 0
422 -395 -418 0
418 395 422 0
-14 -422 0
423 -8 -424 0
8 -423 -424 0
-423 -8 424 0
8 423 424 0
-11 -424 0
8 -425 -426 0
425 -8 -426 0
426 -8 -425 0
426 8 425 0
-12 426 0
-423 427 0
-425 427 0
-428 427 0
-429 427 0
-430 427 0
-431 427 0
-432 427 0
433 0
8 -427 -434 0
-8 427 -434 0
-8 -427 434 0
8 427 434 0
-13 434 0
423 435 0
425 435 0
428 435 0
429 435 0
430 435 0
431 435 0
432 435 0
-436 0
-8 435 -437 0
8 -435 -437 0
437 -435 -8 0
8 435 437 0
-14 -437 0
425 -438 -439 0
438 -425 -439 0
-425 -438 439 0
425 438 439 0
-11 -439 0
438 -428 -440 0
428 -438 -440 0
440 -438 -428 0
440 438 428 0
-12 440 0
-425 441 0
-428 441 0
-429 441 0
-430 441 0
-431 441 0
-432 441 0
442 0
438 -441 -443 0
-438 441 -443 0
-438 -441 443 0
438 441 443 0
-13 443 0
425 444 0
428 444 0
429 444 0
430 444 0
431 444 0
432 444 0
-445 0
-438 444 -446 0
438 -444 -446 0
446 -444 -438 0
438 444 446 0
-14 -446 0
428 -447 -448 0
447 -428 -448 0
-428 -447 448 0
428 447 448 0
-11 -448 0
447 -429 -449 0
429 -447 -449 0
449 -447 -429 0
449 447 429 0
-12 449 0
-428 450 0
-429 450 0
-430 450 0
-431 450 0
-432 450 0
428 429 430 431 432 -450 0
447 -450 -451 0
-447 450 -451 0
-447 -450 451 0
447 450 451 0
-13 451 0
428 452 0
429 452 0
430 452 0
431 452 0
432 452 0
-453 0
-447 452 -454 0
447 -452 -454 0
454 -452 -447 0
447 452 454 0
-14 -454 0
429 -455 -456 0
455 -429 -456 0
-429 -455 456 0
429 455 456 0
-11 -456 0
455 -430 -457 0
430 -455 -457 0
457 -455 -430 0
457 455 430 0
-12 457 0
-429 458 0
-430 458 0
-431 458 0
-432 458 0
429 430 431 432 -458 0
455 -458 -459 0
-455 458 -459 0
-455 -458 459 0
455 458 459 0
-13 459 0
429 460 0
430 460 0
431 460 0
432 460 0
-461 0
-455 460 -462 0
455 -460 -462 0
462 -460 -455 0
455 460 462 0
-14 -462 0
430 -463 -464 0
463 -430 -464 0
-430 -463 464 0
430 463 464 0
-11 -464 0
463 -431 -465 0
431 -463 -465 0
465 -463 -431 0
465 463 431 0
-12 465 0
-430 466 0
-431 466 0
-432 466 0
430 431 432 -466 0
463 -466 -467 0
-463 466 -467 0
-463 -466 467 0
463 466 467 0
-13 467 0
430 468 0
431 468 0
432 468 0
-430 -431 -432 -468 0
-463 468 -469 0
463 -468 -469 0
469 -468 -463 0
463 468 469 0
-14 -469 0
431 -470 -471 0
470 -431 -471 0
-431 -470 471 0
431 470 471 0
-11 -471 0
470 -432 -472 0
432 -470 -472 0
472 -470 -432 0
472 470 432 0
-12 472 0
-431 473 0
-432 473 0
431 432 -473 0
470 -473 -474 0
-470 473 -474 0
-470 -473 474 0
470 473 474 0
-13 474 0
431 475 0
432 475 0
-431 -432 -475 0
-470 475 -476 0
470 -475 -476 0
476 -475 -470 0
470 475 476 0
-14 -476 0
432 -477 -478 0
477 -432 -478 0
-432 -477 478 0
432 477 478 0
-11 -478 0
-431 477 -479 0
431 -477 -479 0
479 -477 -431 0
479 477 431 0
-12 479 0
477 -473 -480 0
-477 473 -480 0
-477 -473 480 0
477 473 480 0
-13 480 0
-477 475 -481 0
477 -475 -481 0
481 -475 -477 0
477 475 481 0
-14 -481 0
482 -9 -483 0
9 -482 -483 0
-482 -9 483 0
9 482 483 0
-11 -483 0
9 -484 -485 0
484 -9 -485 0
485 -9 -484 0
485 9 484 0
-12 485 0
-482 486 0
-484 486 0
-487 486 0
-488 486 0
-489 486 0
-490 486 0
-491 486 0
-492 486 0
-493 486 0
-494 486 0
-495 486 0
-496 486 0
497 0
9 -486 -498 0
-9 486 -498 0
-9 -486 498 0
9 486 498 0
-13 498 0
482 499 0
484 499 0
487 499 0
488 499 0
489 499 0
490 499 0
491 499 0
492 499 0
493 499 0
494 499 0
495 499 0
496 499 0
-500 0
-9 499 -501 0
9 -499 -501 0
501 -499 -9 0
9 499 501 0
-14 -501 0
484 -502 -503 0
502 -484 -503 0
-484 -502 503 0
484 502 503 0
-11 -503 0
502 -487 -504 0
487 -502 -504 0
504 -502 -487 0
504 502 487 0
-12 504 0
-484 505 0
-487 505 0
-488 505 0
-489 505 0
-490 505 0
-491 505 0
-492 505 0
-493 505 0
-494 505 0
-495 505 0
-496 505 0
506 0
502 -505 -507 0
-502 505 -507 0
-502 -505 507 0
502 505 507 0
-13 507 0
484 508 0
487 508 0
488 508 0
489 508 0
490 508 0
491 508 0
492 508 0
493 508 0
494 508 0
495 508 0
496 508 0
-509 0
-502 508 -510 0
502 -508 -510 0
510 -508 -502 0
502 508 510 0
-14 -510 0
487 -511 -512 0
511 -487 -512 0
-487 -511 512 0
487 511 512 0
-11 -512 0
511 -488 -513 0
488 -511 -513 0
513 -511 -488 0
513 511 488 0
-12 513 0
-487 514 0
-488 514 0
-489 514 0
-490 514 0
-491 514 0
-492 514 0
-493 514 0
-494 514 0
-495 514 0
-496 514 0
515 0
511 -514 -516 0
-511 514 -516 0
-511 -514 516 0
511 514 516 0
-13 516 0
487 517 0
488 517 0
489 517 0
490 517 0
491 517 0
492 517 0
493 517 0
494 517 0
495 517 0
496 517 0
-518 0
-511 517 -519 0
511 -517 -519 0
519 -517 -511 0
511 517 519 0
-14 -519 0
488 -520 -521 0
520 -488 -521 0
-488 -520 521 0
488 520 521 0
-11 -521 0
520 -489 -522 0
489 -520 -522 0
522 -520 -489 0
522 520 489 0
-12 522 0
-488 523 0
-489 523 0
-490 523 0
-491 523 0
-492 523 0
-493 523 0
-494 523 0
-495 523 0
-496 523 0
524 0
520 -523 -525 0
-520 523 -525 0
-520 -523 525 0
520 523 525 0
-13 525 0
488 526 0
489 526 0
490 526 0
491 526 0
492 526 0
493 526 0
494 526 0
495 526 0
496 526 0
-527 0
-520 526 -528 0
520 -526 -528 0
528 -526 -520 0
520 526 528 0
-14 -528 0
489 -529 -530 0
529 -489 -530 0
-489 -529 530 0
489 529 530 0
-11 -530 0
529 -490 -531 0
490 -529 -531 0
531 -529 -490 0
531 529 490 0
-12 531 0
-489 532 0
-490 532 0
-491 532 0
-492 532 0
-493 532 0
-494 532 0
-495 532 0
-496 532 0
533 0
529 -532 -534 0
-529 532 -534 0
-529 -532 534 0
529 532 534 0
-13 534 0
489 535 0
490 535 0
491 535 0
492 535 0
493 535 0
494 535 0
495 535 0
496 535 0
-536 0
-529 535 -537 0
529 -535 -537 0
537 -535 -529 0
529 535 537 0
-14 -537 0
490 -538 -539 0
538 -490 -539 0
-490 -538 539 0
490 538 539 0
-11 -539 0
538 -491 -540 0
491 -538 -540 0
540 -538 -491 0
540 538 491 0
-12 540 0
-490 541 0
-491 541 0
-492 541 0
-493 541 0
-494 541 0
-495 541 0
-496 541 0
542 0
538 -541 -543 0
-538 541 -543 0
-538 -541 543 0
538 541 543 0
-13 543 0
490 544 0
491 544 0
492 544 0
493 544 0
494 544 0
495 544 0
496 544 0
-545 0
-538 544 -546 0
538 -544 -546 0
546 -544 -538 0
538 544 546 0
-14 -546 0
491 -547 -548 0
547 -491 -548 0
-491 -547 548 0
491 547 548 0
-11 -548 0
547 -492 -549 0
492 -547 -549 0
549 -547 -492 0
549 547 492 0
-12 549 0
-491 550 0
-492 550 0
-493 550 0
-494 550 0
-495 550 0
-496 550 0
551 0
547 -550 -552 0
-547 550 -552 0
-547 -550 552 0
547 550 552 0
-13 552 0
491 553 0
492 553 0
493 553 0
494 553 0
495 553 0
496 553 0
-554 0
-547 553 -555 0
547 -553 -555 0
555 -553 -547 0
547 553 555 0
-14 -555 0
492 -556 -557 0
556 -492 -557 0
-492 -556 557 0
492 556 557 0
-11 -557 0
556 -493 -558 0
493 -556 -558 0
558 -556 -493 0
558 556 493 0
-12 558 0
556 -550 -559 0
-556 550 -559 0
-556 -550 559 0
556 550 559 0
-13 559 0
-556 553 -560 0
556 -553 -560 0
560 -553 -556 0
556 553 560 0
-14 -560 0
493 -561 -562 0
561 -493 -562 0
-493 -561 562 0
493 561 562 0
-11 -562 0
561 -494 -563 0
494 -561 -563 0
563 -561 -494 0
563 561 494 0
-12 563 0
561 -550 -564 0
-561 550 -564 0
-561 -550 564 0
561 550 564 0
-13 564 0
-561 553 -565 0
561 -553 -565 0
565 -553 -561 0
561 553 565 0
-14 -565 0
494 -566 -567 0
566 -494 -567 0
-494 -566 567 0
494 566 567 0
-11 -567 0
566 -495 -568 0
495 -566 -568 0
568 -566 -495 0
568 566 495 0
-12 568 0
566 -550 -569 0
-566 550 -569 0
-566 -550 569 0
566 550 569 0
-13 569 0
-566 553 -570 0
566 -553 -570 0
570 -553 -566 0
566 553 570 0
-14 -570 0
495 -571 -572 0
571 -495 -572 0
-495 -571 572 0
495 571 572 0
-11 -572 0
571 -496 -573 0
496 -571 -573 0
573 -571 -496 0
573 571 496 0
-12 573 0
571 -550 -574 0
-571 550 -574 0
-571 -550 574 0
571 550 574 0
-13 574 0
-571 553 -575 0
571 -553 -575 0
575 -553 -571 0
571 553 575 0
-14 -575 0
496 -576 -577 0
576 -496 -577 0
-496 -576 577 0
496 576 577 0
-11 -577 0
-491 576 -578 0
491 -576 -578 0
578 -576 -491 0
578 576 491 0
-12 578 0
576 -550 -579 0
-576 550 -579 0
-576 -550 579 0
576 550 579 0
-13 579 0
-576 553 -580 0
576 -553 -580 0
580 -553 -576 0
576 553 580 0
-14 -580 0
581 -10 -582 0
10 -581 -582 0
-581 -10 582 0
10 581 582 0
-11 -582 0
10 -583 -584 0
583 -10 -584 0
584 -10 -583 0
584 10 583 0
-12 584 0
-98 585 0
-99 585 0
-100 585 0
-101 585 0
-581 585 0
-583 585 0
-586 585 0
-587 585 0
588 0
10 -585 -589 0
-10 585 -589 0
-10 -585 589 0
10 585 589 0
-13 589 0
98 590 0
99 590 0
100 590 0
101 590 0
581 590 0
583 590 0
586 590 0
587 590 0
-591 0
-10 590 -592 0
10 -590 -592 0
592 -590 -10 0
10 590 592 0
-14 -592 0
583 -593 -594 0
593 -583 -594 0
-583 -593 594 0
583 593 594 0
-11 -594 0
593 -586 -595 0
586 -593 -595 0
595 -593 -586 0
595 593 586 0
-12 595 0
-98 596 0
-99 596 0
-100 596 0
-101 596 0
-583 596 0
-586 596 0
-587 596 0
597 0
593 -596 -598 0
-593 596 -598 0
-593 -596 598 0
593 596 598 0
-13 598 0
98 599 0
99 599 0
100 599 0
101 599 0
583 599 0
586 599 0
587 599 0
-600 0
-593 599 -601 0
593 -599 -601 0
601 -599 -593 0
593 599 601 0
-14 -601 0
586 -602 -603 0
602 -586 -603 0
-586 -602 603 0
586 602 603 0
-11 -603 0
602 -587 -604 0
587 -602 -604 0
604 -602 -587 0
604 602 587 0
-12 604 0
-98 605 0
-99 605 0
-100 605 0
-101 605 0
-586 605 0
-587 605 0
606 0
602 -605 -607 0
-602 605 -607 0
-602 -605 607 0
602 605 607 0
-13 607 0
98 608 0
99 608 0
100 608 0
101 608 0
586 608 0
587 608 0
-609 0
-602 608 -610 0
602 -608 -610 0
610 -608 -602 0
602 608 610 0
-14 -610 0
587 -611 -612 0
611 -587 -612 0
-587 -611 612 0
587 611 612 0
-11 -612 0
-99 611 -613 0
99 -611 -613 0
613 -611 -99 0
613 611 99 0
-12 613 0
-98 614 0
-99 614 0
-100 614 0
-101 614 0
-587 614 0
98 99 100 101 587 -614 0
611 -614 -615 0
-611 614 -615 0
-611 -614 615 0
611 614 615 0
-13 615 0
98 616 0
99 616 0
100 616 0
101 616 0
587 616 0
-617 0
-611 616 -618 0
611 -616 -618 0
618 -616 -611 0
611 616 618 0
-14 -618 0
15 0
-18 0
20 0
23 0
24 0
25 0
-26 0
27 0
28 0
-29 0
89 0
91 0
-94 0
-95 0
-96 0
-97 0
98 0
-99 0
-100 0
101 0
174 0
176 0
-179 0
180 0
181 0
182 0
183 0
184 0
185 0
-186 0
-187 0
-263 0
-265 0
-282 0
-284 0
-287 0
288 0
289 0
290 0
324 0
-326 0
329 0
-330 0
331 0
-332 0
333 0
-334 0
-335 0
-336 0
-337 0
338 0
-423 0
-425 0
-428 0
429 0
430 0
431 0
-432 0
-482 0
-484 0
487 0
-488 0
-489 0
-490 0
-491 0
-492 0
493 0
-494 0
495 0
496 0
581 0
583 0
586 0
-587 0
